p cnf 19 63
5 15 17 0
3 9 -11 0
-2 -3 -4 0
-12 13 -19 0
-2 13 -16 0
4 10 -17 0
-3 -11 -17 0
-7 -10 14 0
-1 -7 -16 0
3 -4 7 0
-8 -14 -18 0
9 -13 17 0
5 11 -14 0
-2 7 16 0
2 10 12 0
-5 -16 -17 0
6 -12 19 0
-1 -3 9 0
-10 -15 17 0
-4 9 -17 0
-4 6 -7 0
4 -15 -17 0
2 -12 19 0
-3 10 -11 0
6 -14 19 0
2 -12 -18 0
-3 8 -18 0
10 -12 -15 0
12 13 16 0
-10 11 -18 0
3 -4 5 0
-5 -9 -14 0
-3 9 14 0
-1 -5 8 0
11 -13 19 0
1 3 4 0
3 13 -14 0
-4 7 -15 0
1 13 15 0
3 -6 16 0
6 8 16 0
3 -10 -13 0
-4 15 18 0
-7 -15 -17 0
-3 6 -16 0
-4 -14 17 0
3 -4 -19 0
-7 8 -14 0
-1 -14 -17 0
-1 3 14 0
14 16 18 0
-6 -7 16 0
9 14 17 0
-1 -7 -18 0
1 -6 18 0
-8 -13 -16 0
-1 -17 -19 0
2 6 -16 0
5 10 -17 0
-6 -15 -17 0
-4 10 12 0
-1 10 -13 0
-5 10 -19 0
